# layout:
# <class id> <instance id> <attribute 1> ... <attribute 16>\n
# ....

# conventions:
# - \s is used to place a space (ASCII 0x20)
# - \0 is used to place ASCII 0
# - enclose "a b c" in quotes (either single or double) to interpret it as one
# attribute
#
# numbers radix defined by prefix (0x for 16; 0 for 8; nothing for 10)


# ONT-G
256 0 LQDE 00000000000000 00000000 2 0 0 0 0 #0

# ONT2-G
257 0 00000000000000000000 0xa0 0 1 1 64 64 1 64 0 0x007f 0 24 48

# ONT data
2 0 0

# ONU dynamic power management control
336 0 0x3 0x0 0 0 0 0 0 0x0000000000000000

# Software image
7 0
7 1

# ONT remote debug
158 0 0 "                         "

# OLT-G
131 0 "    " "                    " "              " 0x0000000000000000000000000000

# ANI Cardholder
5 0x0180 248 248 0 "                    " "                    " 0 0 0 0

# ANI Circuit Pack
6 0x0180 248 1 "        " "              " LQDE 0 1 0 "                    " 0 8 72 9 0

# ANI-G
263 0x8001 1 8 48 0 0 5 9 0 0 0 0xff 0xff 0 0 0x81 0x81

# Traffic Scheduler (DS)
278 0xff43 0x0000 0x0000 0x01 0x00
278 0xff42 0x0000 0xff43 0x01 0x00

# PPTP Ethernet UNI (DS)
? 11 0x0101 0 0 0 0x00 0 1 0 2000 0 0xffff 0 0 0 0 0

# Virtual Ethernet Interface Point
329 0x0101 0 0 \0\0\0\0\0\0\0\0\0\0\0\0\0\0\0\0\0\0\0\0\0\0\0\0\0 0 0xffff

# VEIP Cardholder
5 0x0101 48 48 0 "                    " "                    " 0 0 0 0

# VEIP Circuit Pack
6 0x0101 48 1 "        " "              " LQDE 0 1 0 "                    " 0 0 0 0 0

# Priority Queue (DS) 8 times per PPTP Ethernet UNI
# class id, managed entity id, Queue configuration option, Maximum queue size
# Allocated queue size, Discard-block counter reset interval, Threshold value for discarded blocks due to buffer overflow, Related port
# Traffic scheduler-G pointer, Weight, Back pressure operation, Back pressure time
# Back pressure occur queue threshold, Back pressure clear queue threshold, Packet drop queue thresholds, Packet drop max_p
# Queue_drop_w_q, Drop precedence colour marking
#
# QID (prio queue, class id 277) = me_id & 0x00ff
# SBIN = (sbid << 3) + leaf
# 	sbid = traffic_scheduler_g_ptr & 0x7f
# 	leaf = related_port & 0x07
# EPN DS (egress port number downstream) = ((related_port >> 16) & 0xFF) + 63
# EPN US (egress port number upstream) = ((related_port >> 16) & 0xFF)
#
# The maximum queue size and allocated queue size are not set here and shall be 0.
# These are derived from the drop threshold values by the OMCI software.
#
# drop thresholds:
# - green min: 512 segments = 0x02AB
# - green max: 1024 segments = 0x0556
# - yellow min: 256 segments = 0x0155
# - yellow max: 512 segments = 0x02AB
#
277 0x0080 1 0 0 60000 0xffff 0x01010000 0xff42 0x01 0x01 0x00000000 0xffff 0xffff \x15\x56\x15\x56\x15\x56\x15\x56 \x00\x00 15 3
277 0x0081 1 0 0 60000 0xffff 0x01010001 0xff42 0x01 0x01 0x00000000 0xffff 0xffff \x15\x56\x15\x56\x15\x56\x15\x56 \x00\x00 15 3
277 0x0082 1 0 0 60000 0xffff 0x01010002 0xff42 0x01 0x01 0x00000000 0xffff 0xffff \x15\x56\x15\x56\x15\x56\x15\x56 \x00\x00 15 3
277 0x0083 1 0 0 60000 0xffff 0x01010003 0xff42 0x01 0x01 0x00000000 0xffff 0xffff \x15\x56\x15\x56\x15\x56\x15\x56 \x00\x00 15 3
277 0x0084 1 0 0 60000 0xffff 0x01010004 0xff42 0x01 0x01 0x00000000 0xffff 0xffff \x15\x56\x15\x56\x15\x56\x15\x56 \x00\x00 15 3
277 0x0085 1 0 0 60000 0xffff 0x01010005 0xff42 0x01 0x01 0x00000000 0xffff 0xffff \x15\x56\x15\x56\x15\x56\x15\x56 \x00\x00 15 3
277 0x0086 1 0 0 60000 0xffff 0x01010006 0xff42 0x01 0x01 0x00000000 0xffff 0xffff \x15\x56\x15\x56\x15\x56\x15\x56 \x00\x00 15 3
277 0x0087 1 0 0 60000 0xffff 0x01010007 0xff42 0x01 0x01 0x00000000 0xffff 0xffff \x15\x56\x15\x56\x15\x56\x15\x56 \x00\x00 15 3

# T-CONT (US)
262 0x8000 0x00ff 1 2
262 0x8001 0x00ff 1 2
262 0x8002 0x00ff 1 2
262 0x8003 0x00ff 1 2
262 0x8004 0x00ff 1 2
262 0x8005 0x00ff 1 2
262 0x8006 0x00ff 1 2
262 0x8007 0x00ff 1 2

# Traffic Scheduler (US) (one for each TCONT)
278 0xff00 0x8000 0x0000 0x02 0x00
278 0xff01 0x8001 0x0000 0x02 0x00
278 0xff02 0x8002 0x0000 0x02 0x00
278 0xff03 0x8003 0x0000 0x02 0x00
278 0xff04 0x8004 0x0000 0x02 0x00
278 0xff05 0x8005 0x0000 0x02 0x00
278 0xff06 0x8006 0x0000 0x02 0x00
278 0xff07 0x8007 0x0000 0x02 0x00

# ANI Priority Queue (US), 8 queues per T-CONT (US)
277 0x8000 1 0 0 60000 0xffff 0x80000000 0xff00 0x01 0x01 0x00000000 0xffff 0xffff \x35\x56\x35\x56\x35\x56\x35\x56 \x00\x00 15 1
277 0x8001 1 0 0 60000 0xffff 0x80000001 0xff00 0x01 0x01 0x00000000 0xffff 0xffff \x35\x56\x35\x56\x35\x56\x35\x56 \x00\x00 15 1
277 0x8002 1 0 0 60000 0xffff 0x80000002 0xff00 0x01 0x01 0x00000000 0xffff 0xffff \x35\x56\x35\x56\x35\x56\x35\x56 \x00\x00 15 1
277 0x8003 1 0 0 60000 0xffff 0x80000003 0xff00 0x01 0x01 0x00000000 0xffff 0xffff \x35\x56\x35\x56\x35\x56\x35\x56 \x00\x00 15 1
277 0x8004 1 0 0 60000 0xffff 0x80000004 0xff00 0x01 0x01 0x00000000 0xffff 0xffff \x35\x56\x35\x56\x35\x56\x35\x56 \x00\x00 15 1
277 0x8005 1 0 0 60000 0xffff 0x80000005 0xff00 0x01 0x01 0x00000000 0xffff 0xffff \x35\x56\x35\x56\x35\x56\x35\x56 \x00\x00 15 1
277 0x8006 1 0 0 60000 0xffff 0x80000006 0xff00 0x01 0x01 0x00000000 0xffff 0xffff \x35\x56\x35\x56\x35\x56\x35\x56 \x00\x00 15 1
277 0x8007 1 0 0 60000 0xffff 0x80000007 0xff00 0x01 0x01 0x00000000 0xffff 0xffff \x35\x56\x35\x56\x35\x56\x35\x56 \x00\x00 15 1

277 0x8008 1 0 0 60000 0xffff 0x80010000 0xff01 0x01 0x01 0x00000000 0xffff 0xffff \x35\x56\x35\x56\x35\x56\x35\x56 \x00\x00 15 1
277 0x8009 1 0 0 60000 0xffff 0x80010001 0xff01 0x01 0x01 0x00000000 0xffff 0xffff \x35\x56\x35\x56\x35\x56\x35\x56 \x00\x00 15 1
277 0x800a 1 0 0 60000 0xffff 0x80010002 0xff01 0x01 0x01 0x00000000 0xffff 0xffff \x35\x56\x35\x56\x35\x56\x35\x56 \x00\x00 15 1
277 0x800b 1 0 0 60000 0xffff 0x80010003 0xff01 0x01 0x01 0x00000000 0xffff 0xffff \x35\x56\x35\x56\x35\x56\x35\x56 \x00\x00 15 1
277 0x800c 1 0 0 60000 0xffff 0x80010004 0xff01 0x01 0x01 0x00000000 0xffff 0xffff \x35\x56\x35\x56\x35\x56\x35\x56 \x00\x00 15 1
277 0x800d 1 0 0 60000 0xffff 0x80010005 0xff01 0x01 0x01 0x00000000 0xffff 0xffff \x35\x56\x35\x56\x35\x56\x35\x56 \x00\x00 15 1
277 0x800e 1 0 0 60000 0xffff 0x80010006 0xff01 0x01 0x01 0x00000000 0xffff 0xffff \x35\x56\x35\x56\x35\x56\x35\x56 \x00\x00 15 1
277 0x800f 1 0 0 60000 0xffff 0x80010007 0xff01 0x01 0x01 0x00000000 0xffff 0xffff \x35\x56\x35\x56\x35\x56\x35\x56 \x00\x00 15 1

277 0x8010 1 0 0 60000 0xffff 0x80020000 0xff02 0x01 0x01 0x00000000 0xffff 0xffff \x35\x56\x35\x56\x35\x56\x35\x56 \x00\x00 15 1
277 0x8011 1 0 0 60000 0xffff 0x80020001 0xff02 0x01 0x01 0x00000000 0xffff 0xffff \x35\x56\x35\x56\x35\x56\x35\x56 \x00\x00 15 1
277 0x8012 1 0 0 60000 0xffff 0x80020002 0xff02 0x01 0x01 0x00000000 0xffff 0xffff \x35\x56\x35\x56\x35\x56\x35\x56 \x00\x00 15 1
277 0x8013 1 0 0 60000 0xffff 0x80020003 0xff02 0x01 0x01 0x00000000 0xffff 0xffff \x35\x56\x35\x56\x35\x56\x35\x56 \x00\x00 15 1
277 0x8014 1 0 0 60000 0xffff 0x80020004 0xff02 0x01 0x01 0x00000000 0xffff 0xffff \x35\x56\x35\x56\x35\x56\x35\x56 \x00\x00 15 1
277 0x8015 1 0 0 60000 0xffff 0x80020005 0xff02 0x01 0x01 0x00000000 0xffff 0xffff \x35\x56\x35\x56\x35\x56\x35\x56 \x00\x00 15 1
277 0x8016 1 0 0 60000 0xffff 0x80020006 0xff02 0x01 0x01 0x00000000 0xffff 0xffff \x35\x56\x35\x56\x35\x56\x35\x56 \x00\x00 15 1
277 0x8017 1 0 0 60000 0xffff 0x80020007 0xff02 0x01 0x01 0x00000000 0xffff 0xffff \x35\x56\x35\x56\x35\x56\x35\x56 \x00\x00 15 1

277 0x8018 1 0 0 60000 0xffff 0x80030000 0xff03 0x01 0x01 0x00000000 0xffff 0xffff \x35\x56\x35\x56\x35\x56\x35\x56 \x00\x00 15 1
277 0x8019 1 0 0 60000 0xffff 0x80030001 0xff03 0x01 0x01 0x00000000 0xffff 0xffff \x35\x56\x35\x56\x35\x56\x35\x56 \x00\x00 15 1
277 0x801a 1 0 0 60000 0xffff 0x80030002 0xff03 0x01 0x01 0x00000000 0xffff 0xffff \x35\x56\x35\x56\x35\x56\x35\x56 \x00\x00 15 1
277 0x801b 1 0 0 60000 0xffff 0x80030003 0xff03 0x01 0x01 0x00000000 0xffff 0xffff \x35\x56\x35\x56\x35\x56\x35\x56 \x00\x00 15 1
277 0x801c 1 0 0 60000 0xffff 0x80030004 0xff03 0x01 0x01 0x00000000 0xffff 0xffff \x35\x56\x35\x56\x35\x56\x35\x56 \x00\x00 15 1
277 0x801d 1 0 0 60000 0xffff 0x80030005 0xff03 0x01 0x01 0x00000000 0xffff 0xffff \x35\x56\x35\x56\x35\x56\x35\x56 \x00\x00 15 1
277 0x801e 1 0 0 60000 0xffff 0x80030006 0xff03 0x01 0x01 0x00000000 0xffff 0xffff \x35\x56\x35\x56\x35\x56\x35\x56 \x00\x00 15 1
277 0x801f 1 0 0 60000 0xffff 0x80030007 0xff03 0x01 0x01 0x00000000 0xffff 0xffff \x35\x56\x35\x56\x35\x56\x35\x56 \x00\x00 15 1

277 0x8020 1 0 0 60000 0xffff 0x80040000 0xff04 0x01 0x01 0x00000000 0xffff 0xffff \x35\x56\x35\x56\x35\x56\x35\x56 \x00\x00 15 1
277 0x8021 1 0 0 60000 0xffff 0x80040001 0xff04 0x01 0x01 0x00000000 0xffff 0xffff \x35\x56\x35\x56\x35\x56\x35\x56 \x00\x00 15 1
277 0x8022 1 0 0 60000 0xffff 0x80040002 0xff04 0x01 0x01 0x00000000 0xffff 0xffff \x35\x56\x35\x56\x35\x56\x35\x56 \x00\x00 15 1
277 0x8023 1 0 0 60000 0xffff 0x80040003 0xff04 0x01 0x01 0x00000000 0xffff 0xffff \x35\x56\x35\x56\x35\x56\x35\x56 \x00\x00 15 1
277 0x8024 1 0 0 60000 0xffff 0x80040004 0xff04 0x01 0x01 0x00000000 0xffff 0xffff \x35\x56\x35\x56\x35\x56\x35\x56 \x00\x00 15 1
277 0x8025 1 0 0 60000 0xffff 0x80040005 0xff04 0x01 0x01 0x00000000 0xffff 0xffff \x35\x56\x35\x56\x35\x56\x35\x56 \x00\x00 15 1
277 0x8026 1 0 0 60000 0xffff 0x80040006 0xff04 0x01 0x01 0x00000000 0xffff 0xffff \x35\x56\x35\x56\x35\x56\x35\x56 \x00\x00 15 1
277 0x8027 1 0 0 60000 0xffff 0x80040007 0xff04 0x01 0x01 0x00000000 0xffff 0xffff \x35\x56\x35\x56\x35\x56\x35\x56 \x00\x00 15 1

277 0x8028 1 0 0 60000 0xffff 0x80050000 0xff05 0x01 0x01 0x00000000 0xffff 0xffff \x35\x56\x35\x56\x35\x56\x35\x56 \x00\x00 15 1
277 0x8029 1 0 0 60000 0xffff 0x80050001 0xff05 0x01 0x01 0x00000000 0xffff 0xffff \x35\x56\x35\x56\x35\x56\x35\x56 \x00\x00 15 1
277 0x802a 1 0 0 60000 0xffff 0x80050002 0xff05 0x01 0x01 0x00000000 0xffff 0xffff \x35\x56\x35\x56\x35\x56\x35\x56 \x00\x00 15 1
277 0x802b 1 0 0 60000 0xffff 0x80050003 0xff05 0x01 0x01 0x00000000 0xffff 0xffff \x35\x56\x35\x56\x35\x56\x35\x56 \x00\x00 15 1
277 0x802c 1 0 0 60000 0xffff 0x80050004 0xff05 0x01 0x01 0x00000000 0xffff 0xffff \x35\x56\x35\x56\x35\x56\x35\x56 \x00\x00 15 1
277 0x802d 1 0 0 60000 0xffff 0x80050005 0xff05 0x01 0x01 0x00000000 0xffff 0xffff \x35\x56\x35\x56\x35\x56\x35\x56 \x00\x00 15 1
277 0x802e 1 0 0 60000 0xffff 0x80050006 0xff05 0x01 0x01 0x00000000 0xffff 0xffff \x35\x56\x35\x56\x35\x56\x35\x56 \x00\x00 15 1
277 0x802f 1 0 0 60000 0xffff 0x80050007 0xff05 0x01 0x01 0x00000000 0xffff 0xffff \x35\x56\x35\x56\x35\x56\x35\x56 \x00\x00 15 1

277 0x8030 1 0 0 60000 0xffff 0x80060000 0xff06 0x01 0x01 0x00000000 0xffff 0xffff \x35\x56\x35\x56\x35\x56\x35\x56 \x00\x00 15 1
277 0x8031 1 0 0 60000 0xffff 0x80060001 0xff06 0x01 0x01 0x00000000 0xffff 0xffff \x35\x56\x35\x56\x35\x56\x35\x56 \x00\x00 15 1
277 0x8032 1 0 0 60000 0xffff 0x80060002 0xff06 0x01 0x01 0x00000000 0xffff 0xffff \x35\x56\x35\x56\x35\x56\x35\x56 \x00\x00 15 1
277 0x8033 1 0 0 60000 0xffff 0x80060003 0xff06 0x01 0x01 0x00000000 0xffff 0xffff \x35\x56\x35\x56\x35\x56\x35\x56 \x00\x00 15 1
277 0x8034 1 0 0 60000 0xffff 0x80060004 0xff06 0x01 0x01 0x00000000 0xffff 0xffff \x35\x56\x35\x56\x35\x56\x35\x56 \x00\x00 15 1
277 0x8035 1 0 0 60000 0xffff 0x80060005 0xff06 0x01 0x01 0x00000000 0xffff 0xffff \x35\x56\x35\x56\x35\x56\x35\x56 \x00\x00 15 1
277 0x8036 1 0 0 60000 0xffff 0x80060006 0xff06 0x01 0x01 0x00000000 0xffff 0xffff \x35\x56\x35\x56\x35\x56\x35\x56 \x00\x00 15 1
277 0x8037 1 0 0 60000 0xffff 0x80060007 0xff06 0x01 0x01 0x00000000 0xffff 0xffff \x35\x56\x35\x56\x35\x56\x35\x56 \x00\x00 15 1

277 0x8038 1 0 0 60000 0xffff 0x80070000 0xff07 0x01 0x01 0x00000000 0xffff 0xffff \x35\x56\x35\x56\x35\x56\x35\x56 \x00\x00 15 1
277 0x8039 1 0 0 60000 0xffff 0x80070001 0xff07 0x01 0x01 0x00000000 0xffff 0xffff \x35\x56\x35\x56\x35\x56\x35\x56 \x00\x00 15 1
277 0x803a 1 0 0 60000 0xffff 0x80070002 0xff07 0x01 0x01 0x00000000 0xffff 0xffff \x35\x56\x35\x56\x35\x56\x35\x56 \x00\x00 15 1
277 0x803b 1 0 0 60000 0xffff 0x80070003 0xff07 0x01 0x01 0x00000000 0xffff 0xffff \x35\x56\x35\x56\x35\x56\x35\x56 \x00\x00 15 1
277 0x803c 1 0 0 60000 0xffff 0x80070004 0xff07 0x01 0x01 0x00000000 0xffff 0xffff \x35\x56\x35\x56\x35\x56\x35\x56 \x00\x00 15 1
277 0x803d 1 0 0 60000 0xffff 0x80070005 0xff07 0x01 0x01 0x00000000 0xffff 0xffff \x35\x56\x35\x56\x35\x56\x35\x56 \x00\x00 15 1
277 0x803e 1 0 0 60000 0xffff 0x80070006 0xff07 0x01 0x01 0x00000000 0xffff 0xffff \x35\x56\x35\x56\x35\x56\x35\x56 \x00\x00 15 1
277 0x803f 1 0 0 60000 0xffff 0x80070007 0xff07 0x01 0x01 0x00000000 0xffff 0xffff \x35\x56\x35\x56\x35\x56\x35\x56 \x00\x00 15 1

# Power Shedding
133 0 0 7200 0 600 0 0 0 0 0 0

# Port mapping package-G
297 0 0 \0\0\0\0\0\0\0\0\0\0\0\0\0\0\0\0 \0\0\0\0\0\0\0\0\0\0\0\0\0\0\0\0 \0\0\0\0\0\0\0\0\0\0\0\0\0\0\0\0 \0\0\0\0\0\0\0\0\0\0\0\0\0\0\0\0 \0\0\0\0\0\0\0\0\0\0\0\0\0\0\0\0 \0\0\0\0\0\0\0\0\0\0\0\0\0\0\0\0 \0\0\0\0\0\0\0\0\0\0\0\0\0\0\0\0 \0\0\0\0\0\0\0\0\0\0\0\0\0\0\0\0

# Equipment extension package
160 0

# IP host config data
134 0

# ONU capability
65529 0 CTC\0 0 0 0

# LIOD Password
65530 0 CTC\0 \0\0\0\0\0\0\0\0\0\0\0\0\0\0\0\0\0\0\0\0\0\0\0\0 \0\0\0\0\0\0\0\0\0\0\0\0 0
# IPv6 host config data
347 1
